55
1 0 8
2 0 10
2 1 8
3 0 7
3 1 6
3 2 2
4 0 3
4 1 10
4 2 3
4 3 3
5 0 3
5 1 6
5 2 4
5 3 4
5 4 7
6 0 4
6 1 9
6 2 9
6 3 3
6 4 4
6 5 4
7 0 3
7 1 4
7 2 10
7 3 4
7 4 8
7 5 6
7 6 3
8 0 5
8 1 2
8 2 9
8 3 1
8 4 2
8 5 10
8 6 7
8 7 5
9 0 7
9 1 6
9 2 4
9 3 10
9 4 1
9 5 7
9 6 7
9 7 9
9 8 7
10 0 9
10 1 3
10 2 2
10 3 5
10 4 2
10 5 1
10 6 3
10 7 5
10 8 5
10 9 4
11 0 3
11 1 5
11 2 6
11 3 6
11 4 1
11 5 3
11 6 6
11 7 4
11 8 4
11 9 3
11 10 9
12 0 9
12 1 7
12 2 8
12 3 6
12 4 4
12 5 3
12 6 10
12 7 1
12 8 7
12 9 3
12 10 5
12 11 7
13 0 9
13 1 1
13 2 9
13 3 1
13 4 4
13 5 8
13 6 2
13 7 2
13 8 10
13 9 4
13 10 1
13 11 6
13 12 4
14 0 1
14 1 6
14 2 4
14 3 2
14 4 3
14 5 6
14 6 2
14 7 3
14 8 2
14 9 3
14 10 6
14 11 8
14 12 10
14 13 5
15 0 3
15 1 10
15 2 8
15 3 4
15 4 6
15 5 9
15 6 1
15 7 1
15 8 2
15 9 6
15 10 1
15 11 9
15 12 1
15 13 4
15 14 3
16 0 10
16 1 5
16 2 5
16 3 8
16 4 10
16 5 2
16 6 10
16 7 9
16 8 9
16 9 1
16 10 5
16 11 5
16 12 2
16 13 1
16 14 2
16 15 6
17 0 5
17 1 4
17 2 7
17 3 9
17 4 9
17 5 1
17 6 9
17 7 5
17 8 2
17 9 7
17 10 10
17 11 9
17 12 8
17 13 5
17 14 3
17 15 5
17 16 4
18 0 6
18 1 1
18 2 3
18 3 9
18 4 5
18 5 10
18 6 10
18 7 5
18 8 4
18 9 7
18 10 4
18 11 8
18 12 9
18 13 1
18 14 5
18 15 3
18 16 3
18 17 4
19 0 2
19 1 5
19 2 10
19 3 3
19 4 10
19 5 8
19 6 4
19 7 9
19 8 8
19 9 8
19 10 2
19 11 4
19 12 2
19 13 1
19 14 8
19 15 2
19 16 5
19 17 4
19 18 1
20 0 6
20 1 3
20 2 10
20 3 3
20 4 5
20 5 6
20 6 5
20 7 7
20 8 3
20 9 4
20 10 5
20 11 5
20 12 6
20 13 9
20 14 5
20 15 7
20 16 3
20 17 6
20 18 6
20 19 7
21 0 2
21 1 9
21 2 8
21 3 4
21 4 4
21 5 3
21 6 7
21 7 6
21 8 8
21 9 7
21 10 5
21 11 7
21 12 3
21 13 7
21 14 2
21 15 1
21 16 3
21 17 6
21 18 9
21 19 8
21 20 6
22 0 3
22 1 5
22 2 3
22 3 2
22 4 9
22 5 7
22 6 4
22 7 3
22 8 3
22 9 1
22 10 2
22 11 8
22 12 3
22 13 10
22 14 4
22 15 1
22 16 10
22 17 2
22 18 7
22 19 9
22 20 3
22 21 3
23 0 5
23 1 1
23 2 3
23 3 3
23 4 1
23 5 9
23 6 1
23 7 3
23 8 1
23 9 9
23 10 10
23 11 6
23 12 1
23 13 3
23 14 9
23 15 3
23 16 4
23 17 4
23 18 8
23 19 3
23 20 3
23 21 9
23 22 4
24 0 7
24 1 4
24 2 7
24 3 10
24 4 2
24 5 9
24 6 1
24 7 10
24 8 1
24 9 1
24 10 1
24 11 8
24 12 1
24 13 4
24 14 6
24 15 7
24 16 5
24 17 10
24 18 1
24 19 7
24 20 8
24 21 6
24 22 10
24 23 7
25 0 9
25 1 8
25 2 7
25 3 9
25 4 6
25 5 7
25 6 8
25 7 8
25 8 10
25 9 5
25 10 9
25 11 2
25 12 10
25 13 2
25 14 1
25 15 4
25 16 8
25 17 9
25 18 6
25 19 2
25 20 10
25 21 10
25 22 2
25 23 8
25 24 1
26 0 9
26 1 5
26 2 8
26 3 6
26 4 7
26 5 8
26 6 10
26 7 9
26 8 2
26 9 1
26 10 3
26 11 7
26 12 7
26 13 3
26 14 4
26 15 3
26 16 5
26 17 9
26 18 10
26 19 2
26 20 1
26 21 3
26 22 3
26 23 5
26 24 2
26 25 2
27 0 6
27 1 5
27 2 8
27 3 4
27 4 8
27 5 8
27 6 6
27 7 8
27 8 4
27 9 4
27 10 10
27 11 5
27 12 1
27 13 8
27 14 3
27 15 7
27 16 3
27 17 3
27 18 9
27 19 8
27 20 8
27 21 10
27 22 4
27 23 9
27 24 1
27 25 10
27 26 5
28 0 10
28 1 10
28 2 2
28 3 9
28 4 8
28 5 6
28 6 10
28 7 6
28 8 7
28 9 3
28 10 2
28 11 3
28 12 5
28 13 10
28 14 4
28 15 5
28 16 6
28 17 5
28 18 7
28 19 8
28 20 10
28 21 6
28 22 8
28 23 6
28 24 3
28 25 4
28 26 3
28 27 6
29 0 10
29 1 7
29 2 4
29 3 3
29 4 2
29 5 3
29 6 8
29 7 5
29 8 3
29 9 2
29 10 10
29 11 1
29 12 7
29 13 1
29 14 4
29 15 10
29 16 6
29 17 4
29 18 2
29 19 2
29 20 2
29 21 5
29 22 2
29 23 6
29 24 5
29 25 5
29 26 5
29 27 2
29 28 9
30 0 4
30 1 7
30 2 7
30 3 3
30 4 10
30 5 5
30 6 2
30 7 1
30 8 5
30 9 1
30 10 5
30 11 8
30 12 3
30 13 7
30 14 7
30 15 3
30 16 6
30 17 7
30 18 6
30 19 3
30 20 10
30 21 3
30 22 10
30 23 5
30 24 10
30 25 1
30 26 10
30 27 10
30 28 10
30 29 2
31 0 10
31 1 7
31 2 1
31 3 7
31 4 9
31 5 1
31 6 1
31 7 3
31 8 8
31 9 1
31 10 1
31 11 1
31 12 9
31 13 10
31 14 4
31 15 2
31 16 9
31 17 7
31 18 8
31 19 2
31 20 8
31 21 8
31 22 5
31 23 9
31 24 10
31 25 4
31 26 9
31 27 8
31 28 8
31 29 5
31 30 3
32 0 7
32 1 3
32 2 10
32 3 10
32 4 4
32 5 5
32 6 6
32 7 5
32 8 10
32 9 1
32 10 9
32 11 1
32 12 2
32 13 4
32 14 10
32 15 5
32 16 9
32 17 6
32 18 7
32 19 5
32 20 6
32 21 5
32 22 4
32 23 10
32 24 6
32 25 6
32 26 5
32 27 2
32 28 2
32 29 6
32 30 2
32 31 4
33 0 6
33 1 8
33 2 4
33 3 9
33 4 4
33 5 1
33 6 9
33 7 10
33 8 3
33 9 4
33 10 10
33 11 3
33 12 1
33 13 4
33 14 8
33 15 2
33 16 5
33 17 1
33 18 7
33 19 5
33 20 7
33 21 10
33 22 2
33 23 8
33 24 9
33 25 5
33 26 2
33 27 1
33 28 3
33 29 6
33 30 1
33 31 7
33 32 9
34 0 10
34 1 3
34 2 3
34 3 2
34 4 6
34 5 4
34 6 2
34 7 6
34 8 6
34 9 2
34 10 2
34 11 5
34 12 2
34 13 2
34 14 8
34 15 1
34 16 1
34 17 1
34 18 6
34 19 10
34 20 10
34 21 3
34 22 1
34 23 8
34 24 3
34 25 10
34 26 3
34 27 8
34 28 2
34 29 9
34 30 1
34 31 4
34 32 6
34 33 3
35 0 2
35 1 7
35 2 6
35 3 10
35 4 9
35 5 7
35 6 2
35 7 4
35 8 3
35 9 4
35 10 1
35 11 1
35 12 10
35 13 6
35 14 2
35 15 3
35 16 8
35 17 5
35 18 8
35 19 1
35 20 8
35 21 9
35 22 9
35 23 6
35 24 8
35 25 5
35 26 9
35 27 10
35 28 9
35 29 10
35 30 4
35 31 4
35 32 5
35 33 4
35 34 2
36 0 10
36 1 2
36 2 5
36 3 4
36 4 5
36 5 1
36 6 2
36 7 8
36 8 7
36 9 1
36 10 3
36 11 7
36 12 7
36 13 8
36 14 4
36 15 5
36 16 4
36 17 6
36 18 6
36 19 5
36 20 9
36 21 7
36 22 7
36 23 4
36 24 1
36 25 2
36 26 8
36 27 9
36 28 1
36 29 2
36 30 7
36 31 4
36 32 5
36 33 10
36 34 8
36 35 8
37 0 4
37 1 7
37 2 1
37 3 3
37 4 2
37 5 3
37 6 10
37 7 2
37 8 2
37 9 5
37 10 6
37 11 10
37 12 4
37 13 5
37 14 8
37 15 3
37 16 4
37 17 5
37 18 1
37 19 1
37 20 10
37 21 10
37 22 7
37 23 9
37 24 5
37 25 4
37 26 4
37 27 2
37 28 3
37 29 5
37 30 8
37 31 6
37 32 5
37 33 3
37 34 9
37 35 2
37 36 9
38 0 7
38 1 2
38 2 1
38 3 2
38 4 9
38 5 4
38 6 5
38 7 3
38 8 6
38 9 8
38 10 6
38 11 1
38 12 10
38 13 7
38 14 7
38 15 7
38 16 4
38 17 6
38 18 5
38 19 5
38 20 3
38 21 8
38 22 9
38 23 6
38 24 1
38 25 6
38 26 8
38 27 7
38 28 8
38 29 3
38 30 7
38 31 3
38 32 4
38 33 7
38 34 4
38 35 5
38 36 6
38 37 4
39 0 3
39 1 6
39 2 5
39 3 7
39 4 2
39 5 1
39 6 2
39 7 6
39 8 10
39 9 10
39 10 4
39 11 6
39 12 1
39 13 10
39 14 8
39 15 8
39 16 8
39 17 2
39 18 8
39 19 4
39 20 6
39 21 3
39 22 1
39 23 1
39 24 8
39 25 9
39 26 1
39 27 7
39 28 7
39 29 1
39 30 3
39 31 6
39 32 10
39 33 3
39 34 2
39 35 4
39 36 3
39 37 10
39 38 3
40 0 7
40 1 5
40 2 9
40 3 7
40 4 8
40 5 7
40 6 1
40 7 4
40 8 3
40 9 1
40 10 8
40 11 10
40 12 5
40 13 8
40 14 6
40 15 5
40 16 5
40 17 8
40 18 3
40 19 4
40 20 1
40 21 10
40 22 4
40 23 1
40 24 7
40 25 10
40 26 4
40 27 7
40 28 7
40 29 9
40 30 1
40 31 1
40 32 8
40 33 10
40 34 9
40 35 3
40 36 8
40 37 10
40 38 10
40 39 2
41 0 1
41 1 3
41 2 2
41 3 3
41 4 4
41 5 2
41 6 6
41 7 9
41 8 9
41 9 9
41 10 1
41 11 2
41 12 5
41 13 2
41 14 4
41 15 1
41 16 3
41 17 3
41 18 1
41 19 5
41 20 6
41 21 10
41 22 4
41 23 8
41 24 2
41 25 3
41 26 9
41 27 10
41 28 7
41 29 7
41 30 6
41 31 5
41 32 10
41 33 8
41 34 10
41 35 8
41 36 2
41 37 2
41 38 7
41 39 1
41 40 3
42 0 6
42 1 2
42 2 4
42 3 2
42 4 3
42 5 1
42 6 2
42 7 6
42 8 6
42 9 2
42 10 5
42 11 4
42 12 3
42 13 8
42 14 7
42 15 3
42 16 8
42 17 1
42 18 3
42 19 5
42 20 5
42 21 10
42 22 5
42 23 2
42 24 9
42 25 5
42 26 2
42 27 5
42 28 5
42 29 4
42 30 4
42 31 3
42 32 2
42 33 1
42 34 3
42 35 7
42 36 1
42 37 1
42 38 9
42 39 5
42 40 9
42 41 2
43 0 5
43 1 8
43 2 8
43 3 3
43 4 9
43 5 2
43 6 4
43 7 10
43 8 7
43 9 8
43 10 2
43 11 4
43 12 7
43 13 4
43 14 10
43 15 2
43 16 9
43 17 9
43 18 1
43 19 7
43 20 4
43 21 7
43 22 3
43 23 8
43 24 10
43 25 8
43 26 2
43 27 3
43 28 5
43 29 5
43 30 1
43 31 10
43 32 8
43 33 2
43 34 9
43 35 1
43 36 7
43 37 7
43 38 6
43 39 8
43 40 9
43 41 5
43 42 1
44 0 8
44 1 9
44 2 7
44 3 8
44 4 3
44 5 3
44 6 5
44 7 2
44 8 9
44 9 8
44 10 8
44 11 4
44 12 2
44 13 1
44 14 2
44 15 1
44 16 6
44 17 2
44 18 3
44 19 6
44 20 10
44 21 2
44 22 5
44 23 3
44 24 10
44 25 5
44 26 3
44 27 9
44 28 8
44 29 8
44 30 2
44 31 9
44 32 2
44 33 5
44 34 2
44 35 4
44 36 7
44 37 7
44 38 1
44 39 6
44 40 4
44 41 9
44 42 6
44 43 9
45 0 9
45 1 10
45 2 7
45 3 2
45 4 7
45 5 4
45 6 4
45 7 3
45 8 2
45 9 10
45 10 9
45 11 6
45 12 1
45 13 3
45 14 6
45 15 9
45 16 5
45 17 8
45 18 5
45 19 2
45 20 8
45 21 9
45 22 8
45 23 5
45 24 4
45 25 10
45 26 1
45 27 1
45 28 1
45 29 9
45 30 10
45 31 6
45 32 8
45 33 4
45 34 2
45 35 7
45 36 3
45 37 9
45 38 6
45 39 7
45 40 2
45 41 5
45 42 3
45 43 10
45 44 3
46 0 6
46 1 2
46 2 2
46 3 10
46 4 8
46 5 9
46 6 1
46 7 4
46 8 9
46 9 4
46 10 4
46 11 2
46 12 1
46 13 9
46 14 9
46 15 3
46 16 4
46 17 7
46 18 1
46 19 10
46 20 9
46 21 9
46 22 4
46 23 3
46 24 7
46 25 2
46 26 10
46 27 8
46 28 9
46 29 2
46 30 5
46 31 3
46 32 7
46 33 5
46 34 8
46 35 8
46 36 6
46 37 9
46 38 9
46 39 8
46 40 6
46 41 3
46 42 4
46 43 4
46 44 6
46 45 9
47 0 5
47 1 3
47 2 1
47 3 7
47 4 8
47 5 9
47 6 6
47 7 5
47 8 4
47 9 1
47 10 7
47 11 1
47 12 6
47 13 4
47 14 5
47 15 1
47 16 5
47 17 1
47 18 6
47 19 6
47 20 2
47 21 2
47 22 8
47 23 6
47 24 10
47 25 3
47 26 3
47 27 10
47 28 8
47 29 4
47 30 8
47 31 7
47 32 6
47 33 7
47 34 4
47 35 2
47 36 5
47 37 6
47 38 10
47 39 2
47 40 10
47 41 3
47 42 2
47 43 7
47 44 7
47 45 1
47 46 8
48 0 5
48 1 6
48 2 4
48 3 6
48 4 10
48 5 7
48 6 4
48 7 2
48 8 1
48 9 1
48 10 1
48 11 5
48 12 6
48 13 10
48 14 6
48 15 10
48 16 3
48 17 2
48 18 7
48 19 1
48 20 10
48 21 6
48 22 8
48 23 3
48 24 4
48 25 8
48 26 6
48 27 8
48 28 4
48 29 1
48 30 10
48 31 10
48 32 10
48 33 7
48 34 8
48 35 1
48 36 4
48 37 2
48 38 6
48 39 7
48 40 7
48 41 3
48 42 3
48 43 3
48 44 9
48 45 10
48 46 5
48 47 2
49 0 3
49 1 6
49 2 2
49 3 9
49 4 3
49 5 8
49 6 1
49 7 5
49 8 8
49 9 10
49 10 1
49 11 10
49 12 6
49 13 7
49 14 1
49 15 5
49 16 7
49 17 2
49 18 8
49 19 8
49 20 7
49 21 6
49 22 2
49 23 6
49 24 9
49 25 4
49 26 4
49 27 4
49 28 7
49 29 9
49 30 1
49 31 9
49 32 9
49 33 1
49 34 7
49 35 4
49 36 3
49 37 3
49 38 2
49 39 4
49 40 8
49 41 5
49 42 2
49 43 4
49 44 9
49 45 3
49 46 7
49 47 8
49 48 2
50 0 4
50 1 10
50 2 10
50 3 8
50 4 10
50 5 10
50 6 7
50 7 7
50 8 8
50 9 7
50 10 3
50 11 5
50 12 9
50 13 9
50 14 6
50 15 1
50 16 4
50 17 10
50 18 3
50 19 8
50 20 10
50 21 7
50 22 3
50 23 6
50 24 9
50 25 2
50 26 2
50 27 3
50 28 2
50 29 3
50 30 1
50 31 5
50 32 6
50 33 6
50 34 6
50 35 10
50 36 8
50 37 2
50 38 6
50 39 5
50 40 10
50 41 8
50 42 5
50 43 2
50 44 7
50 45 9
50 46 6
50 47 10
50 48 6
50 49 8
51 0 6
51 1 10
51 2 9
51 3 1
51 4 3
51 5 2
51 6 1
51 7 9
51 8 10
51 9 10
51 10 6
51 11 1
51 12 8
51 13 9
51 14 7
51 15 8
51 16 5
51 17 8
51 18 6
51 19 9
51 20 8
51 21 5
51 22 6
51 23 9
51 24 6
51 25 9
51 26 1
51 27 2
51 28 6
51 29 6
51 30 6
51 31 1
51 32 7
51 33 2
51 34 5
51 35 7
51 36 4
51 37 8
51 38 7
51 39 4
51 40 1
51 41 2
51 42 10
51 43 7
51 44 5
51 45 2
51 46 2
51 47 8
51 48 3
51 49 5
51 50 10
52 0 6
52 1 6
52 2 1
52 3 2
52 4 9
52 5 4
52 6 4
52 7 10
52 8 5
52 9 3
52 10 8
52 11 6
52 12 4
52 13 6
52 14 10
52 15 10
52 16 9
52 17 7
52 18 7
52 19 10
52 20 5
52 21 8
52 22 7
52 23 8
52 24 8
52 25 9
52 26 8
52 27 8
52 28 4
52 29 10
52 30 8
52 31 9
52 32 3
52 33 5
52 34 3
52 35 10
52 36 9
52 37 4
52 38 7
52 39 6
52 40 2
52 41 1
52 42 1
52 43 4
52 44 8
52 45 8
52 46 7
52 47 5
52 48 9
52 49 4
52 50 5
52 51 6
53 0 7
53 1 2
53 2 5
53 3 10
53 4 8
53 5 6
53 6 9
53 7 7
53 8 4
53 9 7
53 10 7
53 11 4
53 12 7
53 13 5
53 14 5
53 15 6
53 16 8
53 17 3
53 18 10
53 19 6
53 20 5
53 21 7
53 22 5
53 23 2
53 24 2
53 25 9
53 26 3
53 27 10
53 28 7
53 29 4
53 30 6
53 31 9
53 32 5
53 33 8
53 34 2
53 35 9
53 36 4
53 37 7
53 38 5
53 39 8
53 40 5
53 41 3
53 42 7
53 43 6
53 44 10
53 45 9
53 46 5
53 47 5
53 48 10
53 49 9
53 50 2
53 51 2
53 52 2
54 0 10
54 1 1
54 2 10
54 3 3
54 4 4
54 5 4
54 6 6
54 7 4
54 8 9
54 9 9
54 10 8
54 11 2
54 12 3
54 13 3
54 14 6
54 15 5
54 16 1
54 17 10
54 18 8
54 19 10
54 20 8
54 21 9
54 22 8
54 23 8
54 24 7
54 25 6
54 26 10
54 27 10
54 28 6
54 29 6
54 30 3
54 31 8
54 32 3
54 33 3
54 34 9
54 35 8
54 36 3
54 37 10
54 38 8
54 39 6
54 40 9
54 41 1
54 42 3
54 43 9
54 44 7
54 45 3
54 46 2
54 47 6
54 48 9
54 49 9
54 50 4
54 51 1
54 52 4
54 53 7
